# written by ASE

%BLOCK LATTICE_CART
 0.000000  2.734220  2.734220
 2.720514  0.000000  2.734220
 2.720514  2.734220  0.000000
%ENDBLOCK LATTICE_CART

%BLOCK POSITIONS_ABS
Si  0.000000  0.000000  0.000000
Si  1.360257  1.367110  1.367110
%ENDBLOCK POSITIONS_ABS

SYMMETRY_GENERATE: TRUE
SYMMETRY_TOL: 1e-05 
FIX_ALL_CELL: TRUE
KPOINT_MP_SPACING: 0.03 
