# written by ASE

%BLOCK LATTICE_CART
 0.000000  2.900000  2.900000
 2.900000  0.000000  2.900000
 2.900000  2.900000  0.000000
%ENDBLOCK LATTICE_CART

%BLOCK POSITIONS_ABS
Si  0.000000  0.000000  0.000000
Si  1.450000  1.450000  1.450000
%ENDBLOCK POSITIONS_ABS

KPOINT_MP_GRID: 1 1 1
KPOINT_MP_OFFSET: 0.0 0.0 0.0
